;; Original file: adr_86.smt2
(set-logic HORN)
(declare-fun |fib$unknown:2| (Int Int) Bool)


(assert (forall ((|$knormal:5| Int)
         (|$alpha-1:n| Int)
         (|$knormal:2| Int)
         (|$knormal:1| Int)
         (|$V-reftype:11| Int)
         (|$knormal:3| Int)
         (|$knormal:6| Int))
  (let ((a!1 (and (= |$knormal:5| (- |$alpha-1:n| 2))
                  (= |$knormal:2| (- |$alpha-1:n| 1))
                  (= (not (= 0 |$knormal:1|)) (< |$alpha-1:n| 2))
                  (= |$V-reftype:11| (+ |$knormal:3| |$knormal:6|))
                  (not (not (= 0 |$knormal:1|)))
                  (|fib$unknown:2| |$knormal:6| |$knormal:5|)
                  (|fib$unknown:2| |$knormal:3| |$knormal:2|)
                  true)))
    (=> a!1 (|fib$unknown:2| |$V-reftype:11| |$alpha-1:n|)))))
(assert (forall ((|$knormal:5| Int)
         (|$alpha-1:n| Int)
         (|$knormal:2| Int)
         (|$knormal:1| Int)
         (|$knormal:3| Int))
  (let ((a!1 (and (= |$knormal:5| (- |$alpha-1:n| 2))
                  (= |$knormal:2| (- |$alpha-1:n| 1))
                  (= (not (= 0 |$knormal:1|)) (< |$alpha-1:n| 2))
                  (not (not (= 0 |$knormal:1|)))
                  (|fib$unknown:2| |$knormal:3| |$knormal:2|)
                  true
                  (not true))))
    (=> a!1 true))))
(assert (forall ((|$knormal:1| Int) (|$alpha-1:n| Int) (|$V-reftype:8| Int))
  (let ((a!1 (and (= (not (= 0 |$knormal:1|)) (< |$alpha-1:n| 2))
                  (= |$V-reftype:8| 1)
                  (not (= 0 |$knormal:1|))
                  true)))
    (=> a!1 (|fib$unknown:2| |$V-reftype:8| |$alpha-1:n|)))))
(assert (forall ((|$knormal:10| Int) (|$alpha-2:n| Int) (|$knormal:8| Int))
  (let ((a!1 (and (= (not (= 0 |$knormal:10|))
                     (<= |$alpha-2:n| |$knormal:8|))
                  (not (not (= 0 |$knormal:10|)))
                  (|fib$unknown:2| |$knormal:8| |$alpha-2:n|))))
    (=> a!1 false))))
(check-sat)
